% File represents an instance of a Composite Structure problem to be solved by a CP framework
% Created on 2025-03-26 10:42:05.696
T = 58;
n = 36;
m = 60;
edges = [(1, 2),
(7, 8),
(13, 14),
(19, 20),
(25, 26),
(31, 32),
(3, 2),
(8, 9),
(15, 14),
(20, 21),
(26, 27),
(32, 33),
(3, 4),
(9, 10),
(15, 16),
(22, 21),
(28, 27),
(34, 33),
(5, 4),
(11, 10),
(16, 17),
(22, 23),
(28, 29),
(34, 35),
(5, 6),
(12, 11),
(18, 17),
(23, 24),
(29, 30),
(35, 36),
(7, 1),
(7, 13),
(19, 13),
(19, 25),
(25, 31),
(8, 2),
(8, 14),
(20, 14),
(20, 26),
(26, 32),
(3, 9),
(15, 9),
(15, 21),
(21, 27),
(27, 33),
(4, 10),
(16, 10),
(22, 16),
(22, 28),
(28, 34),
(5, 11),
(11, 17),
(23, 17),
(23, 29),
(29, 35),
(12, 6),
(12, 18),
(24, 18),
(24, 30),
(30, 36)];
counts = [|12, 16, 12, 16,
|10, 16, 10, 16,
|10, 16, 10, 18,
|10, 14, 10, 14,
|10, 18, 10, 16,
|10, 14, 10, 16,
|12, 16, 12, 18,
|10, 16, 10, 18,
|10, 16, 10, 14,
|10, 14, 10, 12,
|10, 14, 10, 14,
|10, 14, 10, 18,
|10, 14, 10, 18,
|10, 14, 10, 16,
|10, 16, 10, 20,
|10, 14, 10, 16,
|10, 10, 10, 14,
|10, 10, 10, 16,
|10, 16, 10, 22,
|10, 16, 10, 20,
|10, 14, 10, 18,
|10, 14, 10, 22,
|10, 10, 10, 20,
|10, 10, 10, 18,
|10, 14, 10, 22,
|10, 12, 10, 18,
|10, 10, 10, 18,
|10, 10, 10, 20,
|10, 10, 10, 18,
|10, 10, 10, 16,
|8, 14, 8, 22,
|8, 12, 8, 18,
|8, 10, 8, 18,
|10, 10, 10, 18,
|10, 10, 10, 16,
|10, 8, 10, 16|];
